<number of tasks>
50

<cycle time>
1000

<order strength>
0.598


<task times>
1 31
2 259
3 100
4 212
5 73
6 63
7 176
8 137
9 123
10 43
11 123
12 229
13 27
14 173
15 62
16 123
17 49
18 121
19 131
20 217
21 42
22 27
23 162
24 253
25 57
26 102
27 136
28 239
29 181
30 79
31 249
32 138
33 166
34 188
35 63
36 156
37 59
38 202
39 45
40 54
41 135
42 48
43 27
44 155
45 244
46 193
47 117
48 68
49 72
50 234

<precedence relations>
1,7
1,8
3,7
3,13
4,9
4,10
5,6
5,7
5,8
6,14
7,11
8,11
8,12
8,15
9,13
9,14
10,11
10,12
10,19
11,16
11,17
11,22
12,17
12,18
13,17
13,36
14,19
14,22
15,34
16,26
16,28
16,30
17,21
17,31
17,34
18,20
18,21
18,22
19,20
19,21
20,42
20,48
20,49
21,25
22,23
22,24
22,26
22,30
23,46
24,31
25,27
25,28
25,30
26,29
26,31
28,32
29,33
29,34
29,38
30,32
31,32
32,35
32,37
32,38
32,41
33,36
33,37
33,40
33,46
34,39
36,42
37,44
37,47
37,49
40,45
40,50
41,43
41,46
43,48
43,49
44,50
45,48

<end>
